(set-logic QF_NRA)
(set-info :source |Benchmarks generated from hycomp (https://es-static.fbk.eu/tools/hycomp/). BMC instances of non-linear hybrid automata taken from: Alessandro Cimatti, Sergio Mover, Stefano Tonetta, A quantifier-free SMT encoding of non-linear hybrid automata, FMCAD 2012 and Alessandro Cimatti, Sergio Mover, Stefano Tonetta, Quantier-free encoding of invariants for Hybrid Systems, Formal Methods in System Design. This instance solves a BMC problem of depth 1 and uses the quantifier free encoding with lemmas encoding. Contacts: Sergio Mover (mover@fbk.eu), Stefano Tonetta (tonettas@fbk.eu), Alessandro Cimatti (cimatti@fbk.eu).|)
(set-info :smt-lib-version 2.0)
(set-info :category "industrial")
(set-info :status unsat)
;; MathSAT API call trace
;; generated on Mon Mar 19 10:47:37 2012
(declare-fun b.counter.3__AT1 () Bool)
(declare-fun b.delta__AT1 () Real)
(declare-fun b.EVENT.0__AT1 () Bool)
(declare-fun b.x__AT1 () Real)
(declare-fun b.EVENT.1__AT1 () Bool)
(declare-fun b.event_is_timed__AT0 () Bool)
(declare-fun b.y__AT0 () Real)
(declare-fun b.counter.0__AT0 () Bool)
(declare-fun b.counter.1__AT0 () Bool)
(declare-fun b.EVENT.0__AT0 () Bool)
(declare-fun b.bool_atom__AT0 () Bool)
(declare-fun b.counter.2__AT0 () Bool)
(declare-fun b.speed_y__AT1 () Real)
(declare-fun b.event_is_timed__AT1 () Bool)
(declare-fun b.x__AT0 () Real)
(declare-fun b.time__AT1 () Real)
(declare-fun b.bool_atom__AT1 () Bool)
(declare-fun b.g__AT0 () Real)
(declare-fun b.EVENT.1__AT0 () Bool)
(declare-fun b.time__AT0 () Real)
(declare-fun b.delta__AT0 () Real)
(declare-fun b.counter.3__AT0 () Bool)
(declare-fun b.speed_y__AT0 () Real)
(declare-fun b.y__AT1 () Real)
(declare-fun b.counter.0__AT1 () Bool)
(declare-fun b.counter.1__AT1 () Bool)
(declare-fun b.counter.2__AT1 () Bool)
(assert (let ((.def_70 (* (- 1.0) b.g__AT0)))
(let ((.def_73 (* (/ 1 2) .def_70)))
(let ((.def_85 (* 2.0 .def_73)))
(let ((.def_129 (* (- 1.0) .def_85)))
(let ((.def_355 (* .def_129 b.delta__AT1)))
(let ((.def_358 (<= .def_355 b.speed_y__AT1)))
(let ((.def_365 (not .def_358)))
(let ((.def_318 (<= 0.0 b.speed_y__AT1)))
(let ((.def_366 (or .def_318 .def_365)))
(let ((.def_356 (<= b.speed_y__AT1 .def_355)))
(let ((.def_332 (<= b.speed_y__AT1 0.0 )))
(let ((.def_333 (not .def_332)))
(let ((.def_364 (or .def_333 .def_356)))
(let ((.def_367 (and .def_364 .def_366)))
(let ((.def_120 (<= b.g__AT0 0.0 )))
(let ((.def_368 (or .def_120 .def_367)))
(let ((.def_360 (not .def_356)))
(let ((.def_361 (or .def_332 .def_360)))
(let ((.def_319 (not .def_318)))
(let ((.def_359 (or .def_319 .def_358)))
(let ((.def_362 (and .def_359 .def_361)))
(let ((.def_125 (<= 0.0 b.g__AT0)))
(let ((.def_363 (or .def_125 .def_362)))
(let ((.def_369 (and .def_363 .def_368)))
(let ((.def_357 (and .def_332 .def_356)))
(let ((.def_370 (and .def_357 .def_369)))
(let ((.def_314 (* .def_85 b.delta__AT1)))
(let ((.def_315 (+ b.speed_y__AT1 .def_314)))
(let ((.def_330 (<= .def_315 0.0 )))
(let ((.def_331 (not .def_330)))
(let ((.def_350 (or .def_331 .def_332)))
(let ((.def_316 (<= 0.0 .def_315)))
(let ((.def_349 (or .def_316 .def_319)))
(let ((.def_351 (and .def_349 .def_350)))
(let ((.def_352 (or .def_125 .def_351)))
(let ((.def_317 (not .def_316)))
(let ((.def_346 (or .def_317 .def_318)))
(let ((.def_345 (or .def_330 .def_333)))
(let ((.def_347 (and .def_345 .def_346)))
(let ((.def_348 (or .def_120 .def_347)))
(let ((.def_353 (and .def_348 .def_352)))
(let ((.def_344 (and .def_316 .def_318)))
(let ((.def_354 (and .def_344 .def_353)))
(let ((.def_371 (or .def_354 .def_370)))
(let ((.def_305 (* b.speed_y__AT1 b.delta__AT1)))
(let ((.def_303 (* b.delta__AT1 b.delta__AT1)))
(let ((.def_304 (* .def_73 .def_303)))
(let ((.def_306 (+ .def_304 .def_305)))
(let ((.def_291 (* (- 1.0) b.x__AT1)))
(let ((.def_292 (* b.x__AT1 .def_291)))
(let ((.def_307 (* (- 1.0) .def_292)))
(let ((.def_310 (+ .def_307 .def_306)))
(let ((.def_311 (+ b.y__AT1 .def_310)))
(let ((.def_324 (<= .def_311 0.0 )))
(let ((.def_338 (not .def_324)))
(let ((.def_322 (<= b.y__AT1 .def_292)))
(let ((.def_339 (or .def_322 .def_338)))
(let ((.def_293 (<= .def_292 b.y__AT1)))
(let ((.def_336 (not .def_293)))
(let ((.def_312 (<= 0.0 .def_311)))
(let ((.def_337 (or .def_312 .def_336)))
(let ((.def_340 (and .def_337 .def_339)))
(let ((.def_334 (or .def_331 .def_333)))
(let ((.def_335 (not .def_334)))
(let ((.def_341 (or .def_335 .def_340)))
(let ((.def_326 (not .def_312)))
(let ((.def_327 (or .def_293 .def_326)))
(let ((.def_323 (not .def_322)))
(let ((.def_325 (or .def_323 .def_324)))
(let ((.def_328 (and .def_325 .def_327)))
(let ((.def_320 (or .def_317 .def_319)))
(let ((.def_321 (not .def_320)))
(let ((.def_329 (or .def_321 .def_328)))
(let ((.def_342 (and .def_329 .def_341)))
(let ((.def_313 (and .def_293 .def_312)))
(let ((.def_343 (and .def_313 .def_342)))
(let ((.def_372 (and .def_343 .def_371)))
(let ((.def_62 (<= b.g__AT0 10.0 )))
(let ((.def_61 (<= 8.0 b.g__AT0)))
(let ((.def_63 (and .def_61 .def_62)))
(let ((.def_373 (and .def_63 .def_372)))
(let ((.def_32 (not b.counter.0__AT0)))
(let ((.def_30 (not b.counter.1__AT0)))
(let ((.def_33 (and .def_30 .def_32)))
(let ((.def_298 (or .def_33 b.counter.3__AT0)))
(let ((.def_38 (not b.counter.3__AT0)))
(let ((.def_35 (not b.counter.2__AT0)))
(let ((.def_36 (and .def_33 .def_35)))
(let ((.def_297 (or .def_36 .def_38)))
(let ((.def_299 (and .def_297 .def_298)))
(let ((.def_294 (and .def_63 .def_293)))
(let ((.def_288 (not b.EVENT.0__AT1)))
(let ((.def_286 (not b.EVENT.1__AT1)))
(let ((.def_289 (or .def_286 .def_288)))
(let ((.def_6 (not b.counter.0__AT1)))
(let ((.def_4 (not b.counter.1__AT1)))
(let ((.def_279 (or .def_4 .def_6)))
(let ((.def_283 (or b.counter.3__AT1 .def_279)))
(let ((.def_280 (or b.counter.2__AT1 .def_279)))
(let ((.def_9 (not b.counter.2__AT1)))
(let ((.def_278 (or .def_6 .def_9)))
(let ((.def_281 (and .def_278 .def_280)))
(let ((.def_12 (not b.counter.3__AT1)))
(let ((.def_282 (or .def_12 .def_281)))
(let ((.def_284 (and .def_282 .def_283)))
(let ((.def_290 (and .def_284 .def_289)))
(let ((.def_295 (and .def_290 .def_294)))
(let ((.def_273 (<= 0.0 b.delta__AT0)))
(let ((.def_51 (not b.EVENT.0__AT0)))
(let ((.def_49 (not b.EVENT.1__AT0)))
(let ((.def_150 (and .def_49 .def_51)))
(let ((.def_152 (not .def_150)))
(let ((.def_274 (or .def_152 .def_273)))
(let ((.def_275 (or b.EVENT.1__AT0 .def_274)))
(let ((.def_188 (= b.bool_atom__AT0 b.bool_atom__AT1)))
(let ((.def_183 (= b.counter.0__AT1 b.counter.0__AT0)))
(let ((.def_181 (= b.counter.1__AT1 b.counter.1__AT0)))
(let ((.def_179 (= b.counter.2__AT1 b.counter.2__AT0)))
(let ((.def_178 (= b.counter.3__AT1 b.counter.3__AT0)))
(let ((.def_180 (and .def_178 .def_179)))
(let ((.def_182 (and .def_180 .def_181)))
(let ((.def_184 (and .def_182 .def_183)))
(let ((.def_269 (and .def_184 .def_188)))
(let ((.def_270 (or .def_152 .def_269)))
(let ((.def_271 (or b.EVENT.1__AT0 .def_270)))
(let ((.def_258 (* b.delta__AT0 .def_70)))
(let ((.def_259 (* (- 1.0) b.speed_y__AT1)))
(let ((.def_262 (+ .def_259 .def_258)))
(let ((.def_263 (+ b.speed_y__AT0 .def_262)))
(let ((.def_264 (= .def_263 0.0 )))
(let ((.def_250 (* (- 1.0) b.y__AT1)))
(let ((.def_76 (* b.delta__AT0 b.speed_y__AT0)))
(let ((.def_253 (+ .def_76 .def_250)))
(let ((.def_69 (* b.delta__AT0 b.delta__AT0)))
(let ((.def_74 (* .def_69 .def_73)))
(let ((.def_254 (+ .def_74 .def_253)))
(let ((.def_255 (+ b.y__AT0 .def_254)))
(let ((.def_256 (= .def_255 0.0 )))
(let ((.def_170 (= b.x__AT0 b.x__AT1)))
(let ((.def_257 (and .def_170 .def_256)))
(let ((.def_265 (and .def_257 .def_264)))
(let ((.def_266 (or .def_152 .def_265)))
(let ((.def_173 (= b.y__AT0 b.y__AT1)))
(let ((.def_245 (and .def_170 .def_173)))
(let ((.def_176 (= b.speed_y__AT0 b.speed_y__AT1)))
(let ((.def_246 (and .def_176 .def_245)))
(let ((.def_242 (= b.delta__AT0 0.0 )))
(let ((.def_243 (and .def_150 .def_242)))
(let ((.def_244 (not .def_243)))
(let ((.def_247 (or .def_244 .def_246)))
(let ((.def_248 (or b.EVENT.1__AT0 .def_247)))
(let ((.def_235 (and .def_176 .def_184)))
(let ((.def_236 (or b.bool_atom__AT0 .def_235)))
(let ((.def_211 (or .def_6 b.counter.0__AT0)))
(let ((.def_210 (or b.counter.0__AT1 .def_32)))
(let ((.def_212 (and .def_210 .def_211)))
(let ((.def_213 (and .def_4 .def_212)))
(let ((.def_214 (or b.counter.1__AT0 .def_213)))
(let ((.def_209 (or b.counter.1__AT1 .def_30)))
(let ((.def_215 (and .def_209 .def_214)))
(let ((.def_226 (and .def_9 .def_215)))
(let ((.def_227 (or b.counter.2__AT0 .def_226)))
(let ((.def_221 (and .def_4 .def_32)))
(let ((.def_222 (or b.counter.1__AT0 .def_221)))
(let ((.def_223 (and .def_209 .def_222)))
(let ((.def_224 (and b.counter.2__AT1 .def_223)))
(let ((.def_225 (or .def_35 .def_224)))
(let ((.def_228 (and .def_225 .def_227)))
(let ((.def_229 (and b.counter.3__AT1 .def_228)))
(let ((.def_230 (or b.counter.3__AT0 .def_229)))
(let ((.def_216 (and b.counter.2__AT1 .def_215)))
(let ((.def_217 (or b.counter.2__AT0 .def_216)))
(let ((.def_205 (or b.counter.1__AT1 b.counter.1__AT0)))
(let ((.def_203 (and .def_4 b.counter.0__AT1)))
(let ((.def_204 (or .def_30 .def_203)))
(let ((.def_206 (and .def_204 .def_205)))
(let ((.def_207 (and .def_9 .def_206)))
(let ((.def_208 (or .def_35 .def_207)))
(let ((.def_218 (and .def_208 .def_217)))
(let ((.def_219 (and .def_12 .def_218)))
(let ((.def_220 (or .def_38 .def_219)))
(let ((.def_231 (and .def_220 .def_230)))
(let ((.def_200 (* b.speed_y__AT0 b.speed_y__AT0)))
(let ((.def_199 (* b.speed_y__AT1 b.speed_y__AT1)))
(let ((.def_201 (= .def_199 .def_200)))
(let ((.def_197 (+ b.speed_y__AT0 b.speed_y__AT1)))
(let ((.def_198 (= .def_197 0.0 )))
(let ((.def_202 (and .def_198 .def_201)))
(let ((.def_232 (and .def_202 .def_231)))
(let ((.def_196 (not b.bool_atom__AT0)))
(let ((.def_233 (or .def_196 .def_232)))
(let ((.def_56 (* (- 1.0) b.x__AT0)))
(let ((.def_57 (* b.x__AT0 .def_56)))
(let ((.def_193 (= b.y__AT0 .def_57)))
(let ((.def_90 (<= 0.0 b.speed_y__AT0)))
(let ((.def_91 (not .def_90)))
(let ((.def_194 (and .def_91 .def_193)))
(let ((.def_195 (= b.bool_atom__AT0 .def_194)))
(let ((.def_234 (and .def_195 .def_233)))
(let ((.def_237 (and .def_234 .def_236)))
(let ((.def_238 (and .def_170 .def_237)))
(let ((.def_239 (and .def_173 .def_238)))
(let ((.def_240 (or .def_150 .def_239)))
(let ((.def_241 (or b.EVENT.1__AT0 .def_240)))
(let ((.def_249 (and .def_241 .def_248)))
(let ((.def_267 (and .def_249 .def_266)))
(let ((.def_157 (= b.time__AT0 b.time__AT1)))
(let ((.def_171 (and .def_157 .def_170)))
(let ((.def_174 (and .def_171 .def_173)))
(let ((.def_177 (and .def_174 .def_176)))
(let ((.def_185 (and .def_177 .def_184)))
(let ((.def_189 (and .def_185 .def_188)))
(let ((.def_190 (or .def_49 .def_189)))
(let ((.def_160 (* (- 1.0) b.time__AT1)))
(let ((.def_163 (+ b.delta__AT0 .def_160)))
(let ((.def_164 (+ b.time__AT0 .def_163)))
(let ((.def_165 (= .def_164 0.0 )))
(let ((.def_166 (or .def_152 .def_165)))
(let ((.def_167 (or b.EVENT.1__AT0 .def_166)))
(let ((.def_158 (or .def_150 .def_157)))
(let ((.def_159 (or b.EVENT.1__AT0 .def_158)))
(let ((.def_168 (and .def_159 .def_167)))
(let ((.def_191 (and .def_168 .def_190)))
(let ((.def_154 (= .def_152 b.event_is_timed__AT1)))
(let ((.def_151 (= b.event_is_timed__AT0 .def_150)))
(let ((.def_155 (and .def_151 .def_154)))
(let ((.def_192 (and .def_155 .def_191)))
(let ((.def_268 (and .def_192 .def_267)))
(let ((.def_272 (and .def_268 .def_271)))
(let ((.def_276 (and .def_272 .def_275)))
(let ((.def_277 (and .def_49 .def_276)))
(let ((.def_296 (and .def_277 .def_295)))
(let ((.def_300 (and .def_296 .def_299)))
(let ((.def_130 (* b.delta__AT0 .def_129)))
(let ((.def_133 (<= .def_130 b.speed_y__AT0)))
(let ((.def_140 (not .def_133)))
(let ((.def_141 (or .def_90 .def_140)))
(let ((.def_131 (<= b.speed_y__AT0 .def_130)))
(let ((.def_104 (<= b.speed_y__AT0 0.0 )))
(let ((.def_105 (not .def_104)))
(let ((.def_139 (or .def_105 .def_131)))
(let ((.def_142 (and .def_139 .def_141)))
(let ((.def_143 (or .def_120 .def_142)))
(let ((.def_135 (not .def_131)))
(let ((.def_136 (or .def_104 .def_135)))
(let ((.def_134 (or .def_91 .def_133)))
(let ((.def_137 (and .def_134 .def_136)))
(let ((.def_138 (or .def_125 .def_137)))
(let ((.def_144 (and .def_138 .def_143)))
(let ((.def_132 (and .def_104 .def_131)))
(let ((.def_145 (and .def_132 .def_144)))
(let ((.def_86 (* b.delta__AT0 .def_85)))
(let ((.def_87 (+ b.speed_y__AT0 .def_86)))
(let ((.def_102 (<= .def_87 0.0 )))
(let ((.def_103 (not .def_102)))
(let ((.def_123 (or .def_103 .def_104)))
(let ((.def_88 (<= 0.0 .def_87)))
(let ((.def_122 (or .def_88 .def_91)))
(let ((.def_124 (and .def_122 .def_123)))
(let ((.def_126 (or .def_124 .def_125)))
(let ((.def_89 (not .def_88)))
(let ((.def_118 (or .def_89 .def_90)))
(let ((.def_117 (or .def_102 .def_105)))
(let ((.def_119 (and .def_117 .def_118)))
(let ((.def_121 (or .def_119 .def_120)))
(let ((.def_127 (and .def_121 .def_126)))
(let ((.def_116 (and .def_88 .def_90)))
(let ((.def_128 (and .def_116 .def_127)))
(let ((.def_146 (or .def_128 .def_145)))
(let ((.def_77 (+ .def_74 .def_76)))
(let ((.def_78 (* (- 1.0) .def_57)))
(let ((.def_81 (+ .def_78 .def_77)))
(let ((.def_82 (+ b.y__AT0 .def_81)))
(let ((.def_96 (<= .def_82 0.0 )))
(let ((.def_110 (not .def_96)))
(let ((.def_94 (<= b.y__AT0 .def_57)))
(let ((.def_111 (or .def_94 .def_110)))
(let ((.def_58 (<= .def_57 b.y__AT0)))
(let ((.def_108 (not .def_58)))
(let ((.def_83 (<= 0.0 .def_82)))
(let ((.def_109 (or .def_83 .def_108)))
(let ((.def_112 (and .def_109 .def_111)))
(let ((.def_106 (or .def_103 .def_105)))
(let ((.def_107 (not .def_106)))
(let ((.def_113 (or .def_107 .def_112)))
(let ((.def_98 (not .def_83)))
(let ((.def_99 (or .def_58 .def_98)))
(let ((.def_95 (not .def_94)))
(let ((.def_97 (or .def_95 .def_96)))
(let ((.def_100 (and .def_97 .def_99)))
(let ((.def_92 (or .def_89 .def_91)))
(let ((.def_93 (not .def_92)))
(let ((.def_101 (or .def_93 .def_100)))
(let ((.def_114 (and .def_101 .def_113)))
(let ((.def_84 (and .def_58 .def_83)))
(let ((.def_115 (and .def_84 .def_114)))
(let ((.def_147 (and .def_115 .def_146)))
(let ((.def_148 (and .def_63 .def_147)))
(let ((.def_64 (and .def_58 .def_63)))
(let ((.def_52 (or .def_49 .def_51)))
(let ((.def_42 (or .def_30 .def_32)))
(let ((.def_46 (or b.counter.3__AT0 .def_42)))
(let ((.def_43 (or b.counter.2__AT0 .def_42)))
(let ((.def_41 (or .def_32 .def_35)))
(let ((.def_44 (and .def_41 .def_43)))
(let ((.def_45 (or .def_38 .def_44)))
(let ((.def_47 (and .def_45 .def_46)))
(let ((.def_53 (and .def_47 .def_52)))
(let ((.def_65 (and .def_53 .def_64)))
(let ((.def_39 (and .def_36 .def_38)))
(let ((.def_27 (= b.y__AT0 10.0 )))
(let ((.def_23 (= b.x__AT0 0.0 )))
(let ((.def_19 (= b.time__AT0 0.0 )))
(let ((.def_21 (and .def_19 b.event_is_timed__AT0)))
(let ((.def_24 (and .def_21 .def_23)))
(let ((.def_28 (and .def_24 .def_27)))
(let ((.def_40 (and .def_28 .def_39)))
(let ((.def_66 (and .def_40 .def_65)))
(let ((.def_7 (and .def_4 .def_6)))
(let ((.def_14 (or .def_7 b.counter.3__AT1)))
(let ((.def_10 (and .def_7 .def_9)))
(let ((.def_13 (or .def_10 .def_12)))
(let ((.def_15 (and .def_13 .def_14)))
(let ((.def_16 (not .def_15)))
(let ((.def_67 (and .def_16 .def_66)))
(let ((.def_149 (and .def_67 .def_148)))
(let ((.def_301 (and .def_149 .def_300)))
(let ((.def_374 (and .def_301 .def_373)))
.def_374)))))))))))))))))))))))))))))))))))))))))))))))))))))))))))))))))))))))))))))))))))))))))))))))))))))))))))))))))))))))))))))))))))))))))))))))))))))))))))))))))))))))))))))))))))))))))))))))))))))))))))))))))))))))))))))))))))))))))))))))))))))))))))))))))))))))))))))))))))))))))))))))))))))))))))))))))))))))))))))))))))))))))
(check-sat)
(exit)
